c cvc-mult-const_const3_2n_2
c i 3  6  11  18  2  4  0
c 2  : (a_115)[0]
c 3  : (c_116)[0]
c 4  : (a_115)[1]
c 5  : n2741
c 6  : (c_116)[1]
c 7  : n2690
c 8  : n2743
c 9  : n2744
c 10  : n2746
c 11  : (c_116)[2]
c 12  : n2691
c 13  : n2749
c 14  : n2750
c 15  : n2752
c 16  : n2753
c 17  : n2754
c 18  : (c_116)[3]
p cnf 17 41
-2  3  0
2  -3  0
2  4  -5  0
-2  -4  -5  0
-2  4  5  0
2  -4  5  0
-5  6  0
5  -6  0
4  7  -8  0
-4  -7  -8  0
-4  7  8  0
4  -7  8  0
4  -9  0
2  -9  0
-2  -4  9  0
8  9  -10  0
-8  -9  -10  0
8  -9  10  0
-8  9  10  0
-10  11  0
10  -11  0
7  12  -13  0
-7  -12  -13  0
-7  12  13  0
7  -12  13  0
7  -14  0
4  -14  0
-4  -7  14  0
8  -15  0
4  -15  0
2  -15  0
-2  -4  -8  15  0
-14  16  0
-15  16  0
14  15  -16  0
13  16  -17  0
-13  -16  -17  0
13  -16  17  0
-13  16  17  0
-17  18  0
17  -18  0
-7  0
-12  0
